c Generated map
c Size: 8 * 8, weights in range: 1 to 10, walls: False, with ratio 0.0
c dim 5 of 8
c
p sp 64 112
c graph contains 64 nodes and 112 arcs
c
a 1 9 9
a 9 1 9
a 1 2 8
a 2 1 8
a 2 10 8
a 10 2 8
a 2 3 4
a 3 2 4
a 3 11 3
a 11 3 3
a 3 4 8
a 4 3 8
a 4 12 5
a 12 4 5
a 4 5 6
a 5 4 6
a 5 13 1
a 13 5 1
a 5 6 10
a 6 5 10
a 6 14 7
a 14 6 7
a 6 7 1
a 7 6 1
a 7 15 3
a 15 7 3
a 7 8 10
a 8 7 10
a 8 16 8
a 16 8 8
a 9 17 5
a 17 9 5
a 9 10 2
a 10 9 2
a 10 18 3
a 18 10 3
a 10 11 5
a 11 10 5
a 11 19 5
a 19 11 5
a 11 12 2
a 12 11 2
a 12 20 1
a 20 12 1
a 12 13 7
a 13 12 7
a 13 21 2
a 21 13 2
a 13 14 1
a 14 13 1
a 14 22 3
a 22 14 3
a 14 15 7
a 15 14 7
a 15 23 4
a 23 15 4
a 15 16 5
a 16 15 5
a 16 24 1
a 24 16 1
a 17 25 10
a 25 17 10
a 17 18 4
a 18 17 4
a 18 26 10
a 26 18 10
a 18 19 2
a 19 18 2
a 19 27 4
a 27 19 4
a 19 20 2
a 20 19 2
a 20 28 3
a 28 20 3
a 20 21 3
a 21 20 3
a 21 29 6
a 29 21 6
a 21 22 10
a 22 21 10
a 22 30 8
a 30 22 8
a 22 23 6
a 23 22 6
a 23 31 2
a 31 23 2
a 23 24 1
a 24 23 1
a 24 32 2
a 32 24 2
a 25 33 9
a 33 25 9
a 25 26 4
a 26 25 4
a 26 34 3
a 34 26 3
a 26 27 9
a 27 26 9
a 27 35 4
a 35 27 4
a 27 28 5
a 28 27 5
a 28 36 1
a 36 28 1
a 28 29 8
a 29 28 8
a 29 37 7
a 37 29 7
a 29 30 7
a 30 29 7
a 30 38 4
a 38 30 4
a 30 31 2
a 31 30 2
a 31 39 1
a 39 31 1
a 31 32 8
a 32 31 8
a 32 40 2
a 40 32 2
a 33 41 7
a 41 33 7
a 33 34 2
a 34 33 2
a 34 42 3
a 42 34 3
a 34 35 10
a 35 34 10
a 35 43 3
a 43 35 3
a 35 36 3
a 36 35 3
a 36 44 2
a 44 36 2
a 36 37 3
a 37 36 3
a 37 45 4
a 45 37 4
a 37 38 8
a 38 37 8
a 38 46 8
a 46 38 8
a 38 39 6
a 39 38 6
a 39 47 6
a 47 39 6
a 39 40 8
a 40 39 8
a 40 48 2
a 48 40 2
a 41 49 1
a 49 41 1
a 41 42 9
a 42 41 9
a 42 50 8
a 50 42 8
a 42 43 6
a 43 42 6
a 43 51 10
a 51 43 10
a 43 44 1
a 44 43 1
a 44 52 2
a 52 44 2
a 44 45 4
a 45 44 4
a 45 53 10
a 53 45 10
a 45 46 9
a 46 45 9
a 46 54 2
a 54 46 2
a 46 47 3
a 47 46 3
a 47 55 9
a 55 47 9
a 47 48 6
a 48 47 6
a 48 56 2
a 56 48 2
a 49 57 2
a 57 49 2
a 49 50 8
a 50 49 8
a 50 58 5
a 58 50 5
a 50 51 3
a 51 50 3
a 51 59 7
a 59 51 7
a 51 52 7
a 52 51 7
a 52 60 4
a 60 52 4
a 52 53 8
a 53 52 8
a 53 61 5
a 61 53 5
a 53 54 8
a 54 53 8
a 54 62 2
a 62 54 2
a 54 55 2
a 55 54 2
a 55 63 9
a 63 55 9
a 55 56 6
a 56 55 6
a 56 64 9
a 64 56 9
a 57 58 2
a 58 57 2
a 58 59 7
a 59 58 7
a 59 60 7
a 60 59 7
a 60 61 2
a 61 60 2
a 61 62 7
a 62 61 7
a 62 63 4
a 63 62 4
a 63 64 7
a 64 63 7
